p wcnf 199 298 299 
1 -148 189 0 
1 -143 88 0 
1 184 -83 0 
1 5 -75 0 
1 -54 136 0 
1 -36 66 0 
1 11 58 0 
1 -139 128 0 
1 -174 26 0 
1 -57 -139 0 
1 10 153 0 
1 -60 58 0 
1 -89 -102 0 
1 -75 42 0 
1 -87 -48 0 
1 21 57 0 
1 75 137 0 
1 -15 174 0 
1 112 -77 0 
1 -99 59 0 
1 -83 -109 0 
1 84 163 0 
1 -92 4 0 
1 -105 40 0 
1 -64 -52 0 
1 -84 -53 0 
1 -13 -161 0 
1 112 -125 0 
1 -28 -1 0 
1 198 -18 0 
1 -118 -70 0 
1 102 -157 0 
1 -62 180 0 
1 -21 110 0 
1 8 -85 0 
1 -32 11 0 
1 -89 -84 0 
1 -27 -126 0 
1 -84 -180 0 
1 143 -184 0 
1 -135 -69 0 
1 -99 93 0 
1 184 -122 0 
1 53 -191 0 
1 83 110 0 
1 184 104 0 
1 -174 -143 0 
1 -167 159 0 
1 135 164 0 
1 164 -94 0 
1 29 -111 0 
1 11 -16 0 
1 -192 100 0 
1 -9 24 0 
1 174 -118 0 
1 46 22 0 
1 -21 75 0 
1 -151 -107 0 
1 142 -174 0 
1 57 98 0 
1 45 43 0 
1 185 -53 0 
1 187 98 0 
1 100 168 0 
1 39 -53 0 
1 -52 -115 0 
1 152 166 0 
1 70 63 0 
1 74 45 0 
1 144 -189 0 
1 -131 190 0 
1 -85 60 0 
1 112 -192 0 
1 80 -125 0 
1 -40 -6 0 
1 -193 146 0 
1 35 -135 0 
1 125 90 0 
1 -186 190 0 
1 18 -5 0 
1 49 -154 0 
1 118 -42 0 
1 194 -196 0 
1 18 156 0 
1 61 47 0 
1 -28 -119 0 
1 -178 -2 0 
1 139 -80 0 
1 177 -140 0 
1 48 -197 0 
1 91 132 0 
1 -34 143 0 
1 -180 -63 0 
1 104 93 0 
1 46 104 0 
1 39 127 0 
1 -172 -2 0 
1 -124 -173 0 
1 -27 188 0 
1 -195 90 0 
1 66 -171 0 
1 52 -147 0 
1 -10 164 0 
1 129 -119 0 
1 -66 -87 0 
1 88 28 0 
1 72 -149 0 
1 95 -71 0 
1 20 2 0 
1 -36 -6 0 
1 -128 48 0 
1 98 -178 0 
1 155 52 0 
1 152 73 0 
1 -85 -147 0 
1 -39 -12 0 
1 142 96 0 
1 157 -166 0 
1 177 -124 0 
1 55 170 0 
1 40 -146 0 
1 -84 176 0 
1 87 69 0 
1 -78 192 0 
1 -50 -158 0 
1 78 55 0 
1 -3 -138 0 
1 79 -124 0 
1 -164 74 0 
1 40 -36 0 
1 7 -28 0 
1 -123 -134 0 
1 45 85 0 
1 120 67 0 
1 -140 59 0 
1 -145 -64 0 
1 -151 127 0 
1 -120 -96 0 
1 174 -111 0 
1 -35 16 0 
1 163 -129 0 
1 -167 -183 0 
1 -3 5 0 
1 -124 68 0 
1 132 -40 0 
1 -18 -85 0 
1 -173 -183 0 
1 193 136 0 
1 26 93 0 
1 123 -187 0 
1 156 88 0 
1 30 144 0 
1 54 135 0 
1 174 73 0 
1 -96 -158 0 
1 94 125 0 
1 -20 161 0 
1 -37 159 0 
1 169 16 0 
1 -156 25 0 
1 164 -13 0 
1 26 159 0 
1 83 92 0 
1 144 -71 0 
1 169 -75 0 
1 -118 199 0 
1 165 145 0 
1 152 -126 0 
1 99 -146 0 
1 -162 178 0 
1 -117 -32 0 
1 136 -88 0 
1 107 -123 0 
1 -45 -87 0 
1 -59 -77 0 
1 166 186 0 
1 163 105 0 
1 31 28 0 
1 -76 -66 0 
1 2 -117 0 
1 -32 179 0 
1 56 -197 0 
1 121 -22 0 
1 19 131 0 
1 -65 -137 0 
1 71 164 0 
1 -196 -99 0 
1 47 118 0 
1 15 84 0 
1 129 193 0 
1 103 116 0 
1 -76 103 0 
1 -104 72 0 
1 42 -81 0 
1 -127 29 0 
1 55 -27 0 
1 -81 -77 0 
1 -41 -93 0 
1 183 131 0 
1 32 -145 0 
1 17 -92 0 
1 28 -95 0 
1 124 -196 0 
1 133 -143 0 
1 -131 196 0 
1 -158 87 0 
1 104 119 0 
1 -48 106 0 
1 102 106 0 
1 -34 -107 0 
1 -105 -168 0 
1 -132 157 0 
1 177 -152 0 
1 190 -78 0 
1 162 170 0 
1 159 110 0 
1 -187 65 0 
1 14 74 0 
1 114 36 0 
1 -53 100 0 
1 -192 199 0 
1 33 38 0 
1 71 66 0 
1 -145 -3 0 
1 2 -21 0 
1 -8 -155 0 
1 130 -87 0 
1 52 -116 0 
1 -175 45 0 
1 84 135 0 
1 110 -96 0 
1 77 90 0 
1 -173 -81 0 
1 39 194 0 
1 134 45 0 
1 105 28 0 
1 47 -81 0 
1 123 10 0 
1 -47 -85 0 
1 98 -58 0 
1 -152 151 0 
1 -160 28 0 
1 -11 99 0 
1 148 -89 0 
1 86 -4 0 
1 -12 150 0 
1 -31 114 0 
1 63 105 0 
1 -171 -64 0 
1 -15 94 0 
1 -161 -51 0 
1 63 8 0 
1 -111 -198 0 
1 -77 -45 0 
1 29 -70 0 
1 172 101 0 
1 122 171 0 
1 73 -138 0 
1 49 -48 0 
1 -109 123 0 
1 -162 185 0 
1 -75 74 0 
1 -97 11 0 
1 -133 165 0 
1 -198 158 0 
1 -81 -35 0 
1 -181 129 0 
1 -23 154 0 
1 -154 -98 0 
1 -83 188 0 
1 -65 99 0 
1 -20 73 0 
1 43 -120 0 
1 -173 -179 0 
1 -122 -188 0 
1 -146 70 0 
1 -90 -173 0 
1 118 -122 0 
1 -195 -130 0 
1 50 137 0 
1 31 80 0 
1 -199 168 0 
1 -68 185 0 
1 -124 -43 0 
1 1 119 0 
1 28 -36 0 
1 76 155 0 
1 -199 15 0 
1 51 -96 0 
1 -28 -194 0 
1 199 -20 0 
1 45 136 0 
1 -68 -146 0 
1 -81 34 0 
1 49 126 0 
1 114 4 0 
1 25 -184 0 
1 23 -105 0 
